\ Equation counts
\     Total        E        G        L        N        X        C        B
\	47	47	0	0
\
\ Variable counts
\                  x        b        i      s1s      s2s       sc       si
\     Total     cont   binary  integer     sos1     sos2    scont     sint
\	40	40

\ Nonzero counts
\     Total    const       NL      DLL
\
\
Minimize
 obj: [ + 8.5 x_1 * x_5 - 21.0 x_1 * x_8 + 22.5 x_1 * x_10 - 23.0 x_1 * x_12 - 11.5 x_1 * x_16 - 17.0 x_1 * x_17 - 22.5 x_1 * x_18 - 23.5 x_1 * x_21 + 23.5 x_1 * x_22 + 4.0 x_1 * x_28 - 14.5 x_1 * x_29 + 2.5 x_1 * x_37 + 3.0 x_1 * x_39 - 21.0 x_2 * x_8 - 4.5 x_2 * x_9 + 10.0 x_2 * x_10 - 11.0 x_2 * x_11 + 16.0 x_2 * x_22 - 19.5 x_2 * x_24 - 8.0 x_2 * x_25 - 15.0 x_2 * x_30 + 2.0 x_2 * x_33 - 17.0 x_2 * x_34 - 14.5 x_2 * x_40 - 11.0 x_3 * x_3 + 12.0 x_3 * x_13 - 20.0 x_3 * x_19 - 8.0 x_3 * x_20 - 20.0 x_3 * x_25 + 8.0 x_3 * x_29 + 16.5 x_3 * x_31 + 20.0 x_3 * x_37 + 0.5 x_3 * x_40 + 4.5 x_4 * x_5 - 5.0 x_4 * x_6 - 2.0 x_4 * x_7 + 3.0 x_4 * x_16 + 6.0 x_4 * x_24 - 18.0 x_4 * x_29 + 17.0 x_4 * x_32 - 24.0 x_4 * x_33 + 21.5 x_4 * x_35 - 17.5 x_4 * x_38 - 20.5 x_4 * x_39 + 8.5 x_5 * x_1 + 4.5 x_5 * x_4 - 21.0 x_5 * x_15 - 5.5 x_5 * x_17 + 11.0 x_5 * x_21 + 18.5 x_5 * x_22 + 18.0 x_5 * x_28 + 21.5 x_5 * x_31 - 15.0 x_5 * x_32 + 1.0 x_5 * x_34 - 6.5 x_5 * x_35 + 2.0 x_5 * x_36 + 8.0 x_5 * x_38 - 5.0 x_6 * x_4 - 19.5 x_6 * x_8 - 5.5 x_6 * x_13 - 16.5 x_6 * x_14 + 14.5 x_6 * x_18 + 24.0 x_6 * x_19 - 7.5 x_6 * x_20 - 9.5 x_6 * x_22 + 14.0 x_6 * x_23 - 21.5 x_6 * x_27 + 21.0 x_6 * x_29 + 7.0 x_6 * x_30 + 13.5 x_6 * x_31 - 24.0 x_6 * x_32 - 14.5 x_6 * x_36 + 2.0 x_6 * x_37 - 1.5 x_6 * x_39 - 17.0 x_6 * x_40 - 2.0 x_7 * x_4 + 18.0 x_7 * x_10 + 10.0 x_7 * x_11 + 10.5 x_7 * x_12 + 17.5 x_7 * x_14 - 15.0 x_7 * x_16 + 3.5 x_7 * x_17 + 14.5 x_7 * x_18 + 12.0 x_7 * x_19 + 1.5 x_7 * x_21 + 22.0 x_7 * x_23 + 19.0 x_7 * x_30 - 18.5 x_7 * x_40 - 21.0 x_8 * x_1 - 21.0 x_8 * x_2 - 19.5 x_8 * x_6 - 16.0 x_8 * x_11 + 4.5 x_8 * x_12 - 8.5 x_8 * x_13 + 15.5 x_8 * x_16 + 17.5 x_8 * x_17 + 11.0 x_8 * x_20 - 3.0 x_8 * x_24 - 9.0 x_8 * x_25 - 23.0 x_8 * x_39 - 4.5 x_9 * x_2 + 24.5 x_9 * x_16 + 1.0 x_9 * x_17 - 1.0 x_9 * x_18 - 14.0 x_9 * x_20 + 2.0 x_9 * x_21 - 10.5 x_9 * x_22 + 1.0 x_9 * x_29 - 2.5 x_9 * x_34 - 9.0 x_9 * x_37 + 9.5 x_9 * x_38 + 22.5 x_10 * x_1 + 10.0 x_10 * x_2 + 18.0 x_10 * x_7 - 2.5 x_10 * x_11 + 22.5 x_10 * x_12 - 24.5 x_10 * x_13 + 20.5 x_10 * x_14 - 8.5 x_10 * x_15 + 1.5 x_10 * x_21 + 15.0 x_10 * x_26 + 4.0 x_10 * x_31 + 1.5 x_10 * x_34 - 19.5 x_10 * x_38 - 22.5 x_10 * x_39 - 11.0 x_11 * x_2 + 10.0 x_11 * x_7 - 16.0 x_11 * x_8 - 2.5 x_11 * x_10 + 4.0 x_11 * x_11 - 10.0 x_11 * x_15 - 21.5 x_11 * x_16 - 9.0 x_11 * x_17 - 1.0 x_11 * x_34 + 11.5 x_11 * x_35 - 23.0 x_12 * x_1 + 10.5 x_12 * x_7 + 4.5 x_12 * x_8 + 22.5 x_12 * x_10 - 3.5 x_12 * x_17 - 7.0 x_12 * x_20 + 4.0 x_12 * x_24 - 21.5 x_12 * x_26 + 11.0 x_12 * x_28 - 11.5 x_12 * x_30 - 18.0 x_12 * x_38 - 13.5 x_12 * x_40 + 12.0 x_13 * x_3 - 5.5 x_13 * x_6 - 8.5 x_13 * x_8 - 24.5 x_13 * x_10 - 5.5 x_13 * x_15 - 10.5 x_13 * x_20 + 17.5 x_13 * x_22 - 7.5 x_13 * x_24 - 11.0 x_13 * x_25 + 2.5 x_13 * x_27 - 2.0 x_13 * x_31 + 12.5 x_13 * x_32 + 8.0 x_13 * x_37 - 16.5 x_14 * x_6 + 17.5 x_14 * x_7 + 20.5 x_14 * x_10 - 16.5 x_14 * x_16 - 10.5 x_14 * x_18 - 9.5 x_14 * x_22 - 13.0 x_14 * x_28 - 14.0 x_14 * x_33 + 9.0 x_14 * x_36 - 17.0 x_14 * x_37 - 8.5 x_14 * x_40 - 21.0 x_15 * x_5 - 8.5 x_15 * x_10 - 10.0 x_15 * x_11 - 5.5 x_15 * x_13 - 16.0 x_15 * x_20 + 16.5 x_15 * x_22 + 14.5 x_15 * x_24 + 22.0 x_15 * x_27 + 9.5 x_15 * x_29 + 17.5 x_15 * x_30 + 8.5 x_15 * x_35 - 7.0 x_15 * x_36 - 11.5 x_16 * x_1 + 3.0 x_16 * x_4 - 15.0 x_16 * x_7 + 15.5 x_16 * x_8 + 24.5 x_16 * x_9 - 21.5 x_16 * x_11 - 16.5 x_16 * x_14 - 7.0 x_16 * x_20 - 1.5 x_16 * x_24 - 17.0 x_16 * x_29 + 21.5 x_16 * x_30 + 21.0 x_16 * x_32 - 6.0 x_16 * x_36 - 17.0 x_17 * x_1 - 5.5 x_17 * x_5 + 3.5 x_17 * x_7 + 17.5 x_17 * x_8 + 1.0 x_17 * x_9 - 9.0 x_17 * x_11 - 3.5 x_17 * x_12 + 8.0 x_17 * x_18 - 3.5 x_17 * x_24 + 13.0 x_17 * x_27 + 21.0 x_17 * x_29 - 22.5 x_18 * x_1 + 14.5 x_18 * x_6 + 14.5 x_18 * x_7 - 1.0 x_18 * x_9 - 10.5 x_18 * x_14 + 8.0 x_18 * x_17 + 2.5 x_18 * x_19 + 6.5 x_18 * x_22 - 9.0 x_18 * x_24 + 22.5 x_18 * x_28 - 19.0 x_18 * x_29 + 17.5 x_18 * x_32 + 10.5 x_18 * x_34 - 5.5 x_18 * x_35 - 9.5 x_18 * x_36 - 20.0 x_19 * x_3 + 24.0 x_19 * x_6 + 12.0 x_19 * x_7 + 2.5 x_19 * x_18 + 22.0 x_19 * x_20 - 24.0 x_19 * x_21 - 4.5 x_19 * x_22 - 6.5 x_19 * x_23 + 14.0 x_19 * x_24 + 4.0 x_19 * x_26 + 19.5 x_19 * x_30 + 19.0 x_19 * x_31 - 4.0 x_19 * x_38 - 8.0 x_20 * x_3 - 7.5 x_20 * x_6 + 11.0 x_20 * x_8 - 14.0 x_20 * x_9 - 7.0 x_20 * x_12 - 10.5 x_20 * x_13 - 16.0 x_20 * x_15 - 7.0 x_20 * x_16 + 22.0 x_20 * x_19 + 19.0 x_20 * x_22 + 8.5 x_20 * x_29 + 16.5 x_20 * x_33 - 4.5 x_20 * x_34 - 5.0 x_20 * x_40 - 23.5 x_21 * x_1 + 11.0 x_21 * x_5 + 1.5 x_21 * x_7 + 2.0 x_21 * x_9 + 1.5 x_21 * x_10 - 24.0 x_21 * x_19 - 5.0 x_21 * x_23 + 14.5 x_21 * x_26 + 23.5 x_21 * x_27 + 9.0 x_21 * x_28 - 2.5 x_21 * x_30 - 1.5 x_21 * x_33 + 16.0 x_21 * x_34 + 16.5 x_21 * x_35 + 24.5 x_21 * x_37 + 1.5 x_21 * x_40 + 23.5 x_22 * x_1 + 16.0 x_22 * x_2 + 18.5 x_22 * x_5 - 9.5 x_22 * x_6 - 10.5 x_22 * x_9 + 17.5 x_22 * x_13 - 9.5 x_22 * x_14 + 16.5 x_22 * x_15 + 6.5 x_22 * x_18 - 4.5 x_22 * x_19 + 19.0 x_22 * x_20 - 5.5 x_22 * x_22 + 3.0 x_22 * x_30 - 20.0 x_22 * x_33 + 11.5 x_22 * x_38 + 14.0 x_23 * x_6 + 22.0 x_23 * x_7 - 6.5 x_23 * x_19 - 5.0 x_23 * x_21 + 12.0 x_23 * x_24 - 0.5 x_23 * x_28 + 9.5 x_23 * x_39 - 19.5 x_24 * x_2 + 6.0 x_24 * x_4 - 3.0 x_24 * x_8 + 4.0 x_24 * x_12 - 7.5 x_24 * x_13 + 14.5 x_24 * x_15 - 1.5 x_24 * x_16 - 3.5 x_24 * x_17 - 9.0 x_24 * x_18 + 14.0 x_24 * x_19 + 12.0 x_24 * x_23 + 17.5 x_24 * x_28 + 14.0 x_24 * x_31 + 13.0 x_24 * x_32 + 21.5 x_24 * x_34 + 13.0 x_24 * x_37 - 22.0 x_24 * x_40 - 8.0 x_25 * x_2 - 20.0 x_25 * x_3 - 9.0 x_25 * x_8 - 11.0 x_25 * x_13 + 15.0 x_26 * x_10 - 21.5 x_26 * x_12 + 4.0 x_26 * x_19 + 14.5 x_26 * x_21 - 12.0 x_26 * x_26 + 10.5 x_26 * x_33 + 15.5 x_26 * x_35 - 9.5 x_26 * x_39 - 20.5 x_26 * x_40 - 21.5 x_27 * x_6 + 2.5 x_27 * x_13 + 22.0 x_27 * x_15 + 13.0 x_27 * x_17 + 23.5 x_27 * x_21 + 4.0 x_28 * x_1 + 18.0 x_28 * x_5 + 11.0 x_28 * x_12 - 13.0 x_28 * x_14 + 22.5 x_28 * x_18 + 9.0 x_28 * x_21 - 0.5 x_28 * x_23 + 17.5 x_28 * x_24 - 23.5 x_28 * x_29 + 10.5 x_28 * x_31 + 7.5 x_28 * x_35 + 19.0 x_28 * x_36 - 14.5 x_29 * x_1 + 8.0 x_29 * x_3 - 18.0 x_29 * x_4 + 21.0 x_29 * x_6 + 1.0 x_29 * x_9 + 9.5 x_29 * x_15 - 17.0 x_29 * x_16 + 21.0 x_29 * x_17 - 19.0 x_29 * x_18 + 8.5 x_29 * x_20 - 23.5 x_29 * x_28 - 24.0 x_29 * x_31 + 9.0 x_29 * x_35 - 15.0 x_30 * x_2 + 7.0 x_30 * x_6 + 19.0 x_30 * x_7 - 11.5 x_30 * x_12 + 17.5 x_30 * x_15 + 21.5 x_30 * x_16 + 19.5 x_30 * x_19 - 2.5 x_30 * x_21 + 3.0 x_30 * x_22 + 20.0 x_30 * x_33 + 16.5 x_31 * x_3 + 21.5 x_31 * x_5 + 13.5 x_31 * x_6 + 4.0 x_31 * x_10 - 2.0 x_31 * x_13 + 19.0 x_31 * x_19 + 14.0 x_31 * x_24 + 10.5 x_31 * x_28 - 24.0 x_31 * x_29 - 7.5 x_31 * x_31 + 23.0 x_31 * x_35 + 17.0 x_32 * x_4 - 15.0 x_32 * x_5 - 24.0 x_32 * x_6 + 12.5 x_32 * x_13 + 21.0 x_32 * x_16 + 17.5 x_32 * x_18 + 13.0 x_32 * x_24 + 20.0 x_32 * x_33 - 22.0 x_32 * x_36 - 15.5 x_32 * x_38 - 11.5 x_32 * x_40 + 2.0 x_33 * x_2 - 24.0 x_33 * x_4 - 14.0 x_33 * x_14 + 16.5 x_33 * x_20 - 1.5 x_33 * x_21 - 20.0 x_33 * x_22 + 10.5 x_33 * x_26 + 20.0 x_33 * x_30 + 20.0 x_33 * x_32 - 9.5 x_33 * x_37 + 13.5 x_33 * x_38 - 17.0 x_34 * x_2 + 1.0 x_34 * x_5 - 2.5 x_34 * x_9 + 1.5 x_34 * x_10 - 1.0 x_34 * x_11 + 10.5 x_34 * x_18 - 4.5 x_34 * x_20 + 16.0 x_34 * x_21 + 21.5 x_34 * x_24 + 6.0 x_34 * x_35 + 21.5 x_35 * x_4 - 6.5 x_35 * x_5 + 11.5 x_35 * x_11 + 8.5 x_35 * x_15 - 5.5 x_35 * x_18 + 16.5 x_35 * x_21 + 15.5 x_35 * x_26 + 7.5 x_35 * x_28 + 9.0 x_35 * x_29 + 23.0 x_35 * x_31 + 6.0 x_35 * x_34 + 2.0 x_36 * x_5 - 14.5 x_36 * x_6 + 9.0 x_36 * x_14 - 7.0 x_36 * x_15 - 6.0 x_36 * x_16 - 9.5 x_36 * x_18 + 19.0 x_36 * x_28 - 22.0 x_36 * x_32 + 18.5 x_36 * x_37 + 2.5 x_37 * x_1 + 20.0 x_37 * x_3 + 2.0 x_37 * x_6 - 9.0 x_37 * x_9 + 8.0 x_37 * x_13 - 17.0 x_37 * x_14 + 24.5 x_37 * x_21 + 13.0 x_37 * x_24 - 9.5 x_37 * x_33 + 18.5 x_37 * x_36 - 11.0 x_37 * x_39 - 17.5 x_38 * x_4 + 8.0 x_38 * x_5 + 9.5 x_38 * x_9 - 19.5 x_38 * x_10 - 18.0 x_38 * x_12 - 4.0 x_38 * x_19 + 11.5 x_38 * x_22 - 15.5 x_38 * x_32 + 13.5 x_38 * x_33 - 1.5 x_38 * x_38 + 3.0 x_39 * x_1 - 20.5 x_39 * x_4 - 1.5 x_39 * x_6 - 23.0 x_39 * x_8 - 22.5 x_39 * x_10 + 9.5 x_39 * x_23 - 9.5 x_39 * x_26 - 11.0 x_39 * x_37 - 14.5 x_40 * x_2 + 0.5 x_40 * x_3 - 17.0 x_40 * x_6 - 18.5 x_40 * x_7 - 13.5 x_40 * x_12 - 8.5 x_40 * x_14 - 5.0 x_40 * x_20 + 1.5 x_40 * x_21 - 22.0 x_40 * x_24 - 20.5 x_40 * x_26 - 11.5 x_40 * x_32 + 20.5 x_40 * x_40 ] + 0.0 x_1 + 12.0 x_2 + 0.0 x_3 + 0.0 x_4 + 42.0 x_5 + 0.0 x_6 + 0.0 x_7 + 0.0 x_8 + 0.0 x_9 + 0.0 x_10 + 0.0 x_11 - 34.0 x_12 + 0.0 x_13 + 20.0 x_14 + 0.0 x_15 + 0.0 x_16 + 0.0 x_17 + 0.0 x_18 + 0.0 x_19 + 11.0 x_20 + 0.0 x_21 + 0.0 x_22 + 0.0 x_23 + 0.0 x_24 + 15.0 x_25 + 31.0 x_26 + 0.0 x_27 + 0.0 x_28 + 0.0 x_29 + 0.0 x_30 + 0.0 x_31 + 36.0 x_32 - 3.0 x_33 - 11.0 x_34 + 0.0 x_35 + 0.0 x_36 + 34.0 x_37 + 0.0 x_38 + 0.0 x_39 + 0.0 x_40

Subject To
 e2: [  x_1 * x_10 ] = 0.0
 e3: [  x_2 * x_22 ] = 0.0
 e4: [  x_6 * x_31 ] = 0.0
 e5: [  x_6 * x_37 ] = 0.0
 e6: [  x_9 * x_16 ] = 0.0
 e7: [  x_9 * x_21 ] = 0.0
 e8: [  x_10 * x_1 ] = 0.0
 e9: [  x_10 * x_2 ] = 0.0
 e10: [  x_10 * x_34 ] = 0.0
 e11: [  x_11 * x_10 ] = 0.0
 e12: [  x_11 * x_15 ] = 0.0
 e13: [  x_12 * x_10 ] = 0.0
 e14: [  x_12 * x_20 ] = 0.0
 e15: [  x_13 * x_10 ] = 0.0
 e16: [  x_13 * x_22 ] = 0.0
 e17: [  x_13 * x_24 ] = 0.0
 e18: [  x_16 * x_11 ] = 0.0
 e19: [  x_16 * x_14 ] = 0.0
 e20: [  x_16 * x_32 ] = 0.0
 e21: [  x_17 * x_5 ] = 0.0
 e22: [  x_17 * x_24 ] = 0.0
 e23: [  x_19 * x_24 ] = 0.0
 e24: [  x_19 * x_30 ] = 0.0
 e25: [  x_20 * x_12 ] = 0.0
 e26: [  x_21 * x_35 ] = 0.0
 e27: [  x_22 * x_2 ] = 0.0
 e28: [  x_23 * x_6 ] = 0.0
 e29: [  x_26 * x_12 ] = 0.0
 e30: [  x_28 * x_1 ] = 0.0
 e31: [  x_28 * x_36 ] = 0.0
 e32: [  x_29 * x_4 ] = 0.0
 e33: [  x_29 * x_16 ] = 0.0
 e34: [  x_29 * x_28 ] = 0.0
 e35: [  x_31 * x_19 ] = 0.0
 e36: [  x_31 * x_35 ] = 0.0
 e37: [  x_32 * x_6 ] = 0.0
 e38: [  x_33 * x_26 ] = 0.0
 e39: [  x_35 * x_5 ] = 0.0
 e40: [  x_35 * x_34 ] = 0.0
 e41: [  x_36 * x_6 ] = 0.0
 e42: [  x_36 * x_18 ] = 0.0
 e43: [  x_36 * x_28 ] = 0.0
 e44: [  x_37 * x_1 ] = 0.0
 e45: [  x_37 * x_9 ] = 0.0
 e46: [  x_37 * x_36 ] = 0.0
 e47: [  x_38 * x_33 ] = 0.0
 e48: [  x_38 * x_38 ] = 0.0

Bounds
 x_1 <= 1.0
 x_2 <= 1.0
 x_3 <= 1.0
 x_4 <= 1.0
 x_5 <= 1.0
 x_6 <= 1.0
 x_7 <= 1.0
 x_8 <= 1.0
 x_9 <= 1.0
 x_10 <= 1.0
 x_11 <= 1.0
 x_12 <= 1.0
 x_13 <= 1.0
 x_14 <= 1.0
 x_15 <= 1.0
 x_16 <= 1.0
 x_17 <= 1.0
 x_18 <= 1.0
 x_19 <= 1.0
 x_20 <= 1.0
 x_21 <= 1.0
 x_22 <= 1.0
 x_23 <= 1.0
 x_24 <= 1.0
 x_25 <= 1.0
 x_26 <= 1.0
 x_27 <= 1.0
 x_28 <= 1.0
 x_29 <= 1.0
 x_30 <= 1.0
 x_31 <= 1.0
 x_32 <= 1.0
 x_33 <= 1.0
 x_34 <= 1.0
 x_35 <= 1.0
 x_36 <= 1.0
 x_37 <= 1.0
 x_38 <= 1.0
 x_39 <= 1.0
 x_40 <= 1.0

End